# Solution for model FSG
# Objective value = 1.9057883718684525e+03
x_0_1 0
x_0_2 0
x_0_3 1
x_0_4 1
x_0_5 1
x_0_6 0
x_0_7 0
x_0_8 0
x_1_2 0
x_1_3 0
x_1_4 0
x_1_5 0
x_1_6 1
x_1_7 0
x_1_8 0
x_2_1 0
x_2_3 0
x_2_4 0
x_2_5 0
x_2_6 0
x_2_7 0
x_2_8 1
x_3_1 0
x_3_2 0
x_3_4 0
x_3_5 0
x_3_6 0
x_3_7 1
x_3_8 0
x_4_1 1
x_4_2 0
x_4_3 0
x_4_5 0
x_4_6 0
x_4_7 0
x_4_8 0
x_5_1 0
x_5_2 1
x_5_3 0
x_5_4 0
x_5_6 0
x_5_7 0
x_5_8 0
U_1_1 0
U_1_2 1
U_1_3 0
U_2_1 0
U_2_2 0
U_2_3 1
U_3_1 0
U_3_2 0
U_3_3 1
U_4_1 0
U_4_2 1
U_4_3 0
U_5_1 1
U_5_2 0
U_5_3 0
U_6_1 0
U_6_2 0
U_6_3 1
U_7_1 0
U_7_2 0
U_7_3 1
U_8_1 0
U_8_2 0
U_8_3 1
TBar_0 0
TBar_1 30
TBar_2 3.3184493680320308e+01
TBar_3 30
TBar_4 15
TBar_5 1.1815506319679692e+01
TBar_6 3.9361415491259855e+01
TBar_7 3.5187002988238973e+01
TBar_8 4.4089630084785867e+01
y_0_1_1 0
y_0_1_2 0
y_0_1_3 0
y_0_1_4 0
y_0_1_5 0
y_0_2_1 0
y_0_2_2 0
y_0_2_3 0
y_0_2_4 0
y_0_2_5 0
y_0_3_1 0
y_0_3_2 0
y_0_3_3 0
y_0_3_4 0
y_0_3_5 0
y_0_4_1 0
y_0_4_2 0
y_0_4_3 0
y_0_4_4 0
y_0_4_5 0
y_0_5_1 0
y_0_5_2 0
y_0_5_3 0
y_0_5_4 0
y_0_5_5 0
y_0_6_1 0
y_0_6_2 0
y_0_6_3 0
y_0_6_4 0
y_0_6_5 0
y_0_7_1 0
y_0_7_2 0
y_0_7_3 0
y_0_7_4 0
y_0_7_5 0
y_0_8_1 0
y_0_8_2 0
y_0_8_3 0
y_0_8_4 0
y_0_8_5 0
y_1_2_1 0
y_1_2_2 0
y_1_2_3 0
y_1_2_4 0
y_1_2_5 0
y_1_3_1 0
y_1_3_2 0
y_1_3_3 0
y_1_3_4 0
y_1_3_5 0
y_1_4_1 0
y_1_4_2 0
y_1_4_3 0
y_1_4_4 0
y_1_4_5 0
y_1_5_1 0
y_1_5_2 0
y_1_5_3 0
y_1_5_4 0
y_1_5_5 0
y_1_6_1 1
y_1_6_2 1
y_1_6_3 1
y_1_6_4 1
y_1_6_5 1
y_1_7_1 0
y_1_7_2 0
y_1_7_3 0
y_1_7_4 0
y_1_7_5 0
y_1_8_1 0
y_1_8_2 0
y_1_8_3 0
y_1_8_4 0
y_1_8_5 0
y_2_1_1 0
y_2_1_2 0
y_2_1_3 0
y_2_1_4 0
y_2_1_5 0
y_2_3_1 0
y_2_3_2 0
y_2_3_3 0
y_2_3_4 0
y_2_3_5 0
y_2_4_1 0
y_2_4_2 0
y_2_4_3 0
y_2_4_4 0
y_2_4_5 0
y_2_5_1 0
y_2_5_2 0
y_2_5_3 0
y_2_5_4 0
y_2_5_5 0
y_2_6_1 0
y_2_6_2 0
y_2_6_3 0
y_2_6_4 0
y_2_6_5 0
y_2_7_1 0
y_2_7_2 0
y_2_7_3 0
y_2_7_4 0
y_2_7_5 0
y_2_8_1 0
y_2_8_2 1
y_2_8_3 1
y_2_8_4 1
y_2_8_5 1
y_3_1_1 0
y_3_1_2 0
y_3_1_3 0
y_3_1_4 0
y_3_1_5 0
y_3_2_1 0
y_3_2_2 0
y_3_2_3 0
y_3_2_4 0
y_3_2_5 0
y_3_4_1 0
y_3_4_2 0
y_3_4_3 0
y_3_4_4 0
y_3_4_5 0
y_3_5_1 0
y_3_5_2 0
y_3_5_3 0
y_3_5_4 0
y_3_5_5 0
y_3_6_1 0
y_3_6_2 0
y_3_6_3 0
y_3_6_4 0
y_3_6_5 0
y_3_7_1 0
y_3_7_2 0
y_3_7_3 0
y_3_7_4 0
y_3_7_5 0
y_3_8_1 0
y_3_8_2 0
y_3_8_3 0
y_3_8_4 0
y_3_8_5 0
y_4_1_1 1
y_4_1_2 0
y_4_1_3 1
y_4_1_4 0
y_4_1_5 0
y_4_2_1 0
y_4_2_2 0
y_4_2_3 0
y_4_2_4 0
y_4_2_5 0
y_4_3_1 0
y_4_3_2 0
y_4_3_3 0
y_4_3_4 0
y_4_3_5 0
y_4_5_1 0
y_4_5_2 0
y_4_5_3 0
y_4_5_4 0
y_4_5_5 0
y_4_6_1 0
y_4_6_2 0
y_4_6_3 0
y_4_6_4 0
y_4_6_5 0
y_4_7_1 0
y_4_7_2 0
y_4_7_3 0
y_4_7_4 0
y_4_7_5 0
y_4_8_1 0
y_4_8_2 0
y_4_8_3 0
y_4_8_4 0
y_4_8_5 0
y_5_1_1 0
y_5_1_2 0
y_5_1_3 0
y_5_1_4 0
y_5_1_5 0
y_5_2_1 0
y_5_2_2 0
y_5_2_3 0
y_5_2_4 0
y_5_2_5 0
y_5_3_1 0
y_5_3_2 0
y_5_3_3 0
y_5_3_4 0
y_5_3_5 0
y_5_4_1 0
y_5_4_2 0
y_5_4_3 0
y_5_4_4 0
y_5_4_5 0
y_5_6_1 0
y_5_6_2 0
y_5_6_3 0
y_5_6_4 0
y_5_6_5 0
y_5_7_1 0
y_5_7_2 0
y_5_7_3 0
y_5_7_4 0
y_5_7_5 0
y_5_8_1 0
y_5_8_2 0
y_5_8_3 0
y_5_8_4 0
y_5_8_5 0
Q_0_1 0
Q_0_2 0
Q_0_3 0
Q_0_4 0
Q_0_5 0
Q_1_1 1.6791500000000065e+02
Q_1_2 1.6142000000000067e+02
Q_1_3 1.7106500000000065e+02
Q_1_4 1.6935500000000067e+02
Q_1_5 1.6753000000000065e+02
Q_2_1 1.7278000000000057e+02
Q_2_2 1.8342500000000058e+02
Q_2_3 1.8233500000000058e+02
Q_2_4 1.9127000000000058e+02
Q_2_5 1.8689000000000058e+02
Q_3_1 9.9544999999999362e+01
Q_3_2 9.2514999999999347e+01
Q_3_3 1.0006999999999934e+02
Q_3_4 9.0094999999999345e+01
Q_3_5 1.0277999999999935e+02
Q_4_1 1.0378999999999999e+02
Q_4_2 91.44
Q_4_3 102.22
Q_4_4 98.365
Q_4_5 9.6539999999999992e+01
Q_5_1 6.1379999999999782e+01
Q_5_2 6.1359999999999779e+01
Q_5_3 6.5619999999999777e+01
Q_5_4 6.6059999999999775e+01
Q_5_5 6.4259999999999778e+01
Q_6_1 1.6791500000000065e+02
Q_6_2 1.6142000000000067e+02
Q_6_3 1.7106500000000065e+02
Q_6_4 1.6935500000000067e+02
Q_6_5 1.6753000000000065e+02
Q_7_1 9.9544999999999362e+01
Q_7_2 9.2514999999999347e+01
Q_7_3 1.0006999999999934e+02
Q_7_4 9.0094999999999345e+01
Q_7_5 1.0277999999999935e+02
Q_8_1 1.7278000000000057e+02
Q_8_2 1.8342500000000058e+02
Q_8_3 1.8233500000000058e+02
Q_8_4 1.9127000000000058e+02
Q_8_5 1.8689000000000058e+02
R_6_1 6.7915000000000646e+01
R_6_2 6.1420000000000670e+01
R_6_3 7.1065000000000651e+01
R_6_4 6.9355000000000672e+01
R_6_5 6.7530000000000655e+01
R_7_1 0
R_7_2 0
R_7_3 6.9999999999346585e-02
R_7_4 0
R_7_5 2.7799999999993474e+00
R_8_1 7.2780000000000570e+01
R_8_2 8.3425000000000580e+01
R_8_3 8.2335000000000576e+01
R_8_4 9.1270000000000579e+01
R_8_5 8.6890000000000583e+01
L_1_1 4.05
L_1_2 6.15
L_1_3 6.995
L_1_4 5.92
L_1_5 4.86
L_2_1 0
L_2_2 0
L_2_3 0
L_2_4 0
L_2_5 0
L_3_1 0
L_3_2 0
L_3_3 0
L_3_4 0
L_3_5 0
L_4_1 4.725
L_4_2 5.48
L_4_3 4.425
L_4_4 5.38
L_4_5 3.95
L_5_1 1.5840000000000002e+01
L_5_2 25.985
L_5_3 25.86
L_5_4 2.5799999999999997e+01
L_5_5 26.155
rho_1_1 1
rho_1_2 1
rho_1_3 1
rho_1_4 1
rho_1_5 1
rho_2_1 1
rho_2_2 1
rho_2_3 1
rho_2_4 1
rho_2_5 1
rho_3_1 0
rho_3_2 0
rho_3_3 1
rho_3_4 0
rho_3_5 1
rho_4_1 1
rho_4_2 0
rho_4_3 1
rho_4_4 0
rho_4_5 0
rho_5_1 0
rho_5_2 0
rho_5_3 0
rho_5_4 0
rho_5_5 0
lambd_1_1 0
lambd_1_2 0
lambd_1_3 0
lambd_1_4 0
lambd_1_5 0
lambd_2_1 0
lambd_2_2 0
lambd_2_3 0
lambd_2_4 0
lambd_2_5 0
lambd_3_1 0
lambd_3_2 0
lambd_3_3 0
lambd_3_4 0
lambd_3_5 0
lambd_4_1 0
lambd_4_2 0
lambd_4_3 0
lambd_4_4 0
lambd_4_5 0
lambd_5_1 0
lambd_5_2 0
lambd_5_3 0
lambd_5_4 0
lambd_5_5 0
alpha_1_1 0
alpha_1_2 1
alpha_1_3 0
alpha_1_4 1
alpha_1_5 1
alpha_2_1 0
alpha_2_2 1
alpha_2_3 1
alpha_2_4 1
alpha_2_5 1
alpha_3_1 0
alpha_3_2 0
alpha_3_3 0
alpha_3_4 0
alpha_3_5 0
alpha_4_1 1
alpha_4_2 0
alpha_4_3 1
alpha_4_4 0
alpha_4_5 0
alpha_5_1 0
alpha_5_2 0
alpha_5_3 0
alpha_5_4 0
alpha_5_5 0
